NAME : kroA100-C-3-1-a.22845.tour
COMMENT : Length = 22845
COMMENT : Found by LKH-3 [Keld Helsgaun] Tue Jul 30 13:14:11 2024
TYPE : TOUR
DIMENSION : 100
TOUR_SECTION
1
98
23
77
60
62
35
86
27
12
20
57
9
7
55
83
34
29
46
43
3
14
71
41
100
48
30
39
96
78
52
5
37
33
76
13
95
82
85
68
73
50
44
2
54
40
64
69
81
25
87
51
61
58
67
8
42
89
31
80
56
97
26
65
4
66
70
22
94
16
88
53
19
75
92
63
6
49
90
79
18
24
38
99
36
84
10
72
21
74
59
17
15
11
32
45
91
47
93
28
-1
EOF
